6 24 4 10
9 14 11 6 14 3 7 4 1 12 14 10 9 6 17 6 2 20 14 18 13 16 14 19 
1.89 5.5 2.32 6.81 4.44 8.77 4.57 14.12 2.73 3.97 3.21 15.33 4.06 1.75 12.12 7.6 8.4 2.63 1.9 13.64 2.55 3.45 14.08 0.11 
12.48 6.74 15.61 4.12 1.92 14.66 2.17 7.73 13.89 7.98 0.57 10.4 12.39 13.5 11.5 4.39 8.1 12.59 4.65 8.05 3.5 14.16 5.1 4.95 
7.78 14.66 15.49 10.24 15.36 13.23 12.07 8.61 0.56 3.66 13.79 12.07 12.27 5.64 1.69 4.5 1.76 6.3 4.81 16 3.31 7.44 14.03 8.4 
6.36 3.82 14.88 3.65 9.01 2.01 2.14 9.48 8.36 13.59 12.4 13.29 3.41 1.38 7.67 2.21 0.98 6.88 4.56 14.17 15.59 7.25 10.06 7.39 
8 8 8 8 8 8 8 8 8 8 8 8 8 8 8 8 8 8 8 8 8 8 8 8 
3.54 15.7 2.93 12.54 3.71 5.13 0.33 2.86 10.79 0.08 5.45 9.57 5.12 1.59 3.67 8.85 15.16 4.71 0.69 3.13 12.37 1.93 4.55 12.4 
1 1 1 1 1 1 1 1 1 1 1 1 1 1 1 1 1 1 1 1 1 1 1 1 
1 1 1 1 1 1 1 1 1 1 1 1 1 1 1 1 1 1 1 1 1 1 1 1 
1 1 1 1 1 1 1 1 1 1 1 1 1 1 1 1 1 1 1 1 1 1 1 1 
1 1 1 1 1 1 1 1 1 1 1 1 1 1 1 1 1 1 1 1 1 1 1 1 
1 1 1 1 1 1 1 1 1 1 1 1 1 1 1 1 1 1 1 1 1 1 1 1 
1 1 1 1 1 1 1 1 1 1 1 1 1 1 1 1 1 1 1 1 1 1 1 1 
0.01 0.01 0.01 0.01 0.01 0.01 0.01 0.01 0.01 0.01 0.01 0.01 0.01 0.01 0.01 0.01 0.01 0.01 0.01 0.01 0.01 0.01 0.01 0.01 
0.02 0.02 0.02 0.02 0.02 0.02 0.02 0.02 0.02 0.02 0.02 0.02 0.02 0.02 0.02 0.02 0.02 0.02 0.02 0.02 0.02 0.02 0.02 0.02 
0.03 0.03 0.03 0.03 0.03 0.03 0.03 0.03 0.03 0.03 0.03 0.03 0.03 0.03 0.03 0.03 0.03 0.03 0.03 0.03 0.03 0.03 0.03 0.03 
0.04 0.04 0.04 0.04 0.04 0.04 0.04 0.04 0.04 0.04 0.04 0.04 0.04 0.04 0.04 0.04 0.04 0.04 0.04 0.04 0.04 0.04 0.04 0.04 
0.05 0.05 0.05 0.05 0.05 0.05 0.05 0.05 0.05 0.05 0.05 0.05 0.05 0.05 0.05 0.05 0.05 0.05 0.05 0.05 0.05 0.05 0.05 0.05 
1 1 1 1 1 1 1 1 1 1 1 1 1 1 1 1 1 1 1 1 1 1 1 1 
